c File: instances/34_0.35_3.col
c
c Description: Random graph of size 34 vertices and P(0.35) of edges between any two vertices.
p col 34 561
e 1 8
e 1 19
e 1 22
e 1 24
e 1 26
e 1 31
e 2 8
e 2 16
e 2 17
e 2 24
e 2 25
e 2 27
e 2 28
e 2 30
e 3 8
e 3 13
e 3 14
e 3 17
e 3 18
e 3 19
e 3 20
e 3 21
e 3 27
e 3 31
e 3 32
e 3 34
e 4 9
e 4 12
e 4 13
e 4 14
e 4 18
e 4 24
e 4 25
e 5 6
e 5 8
e 5 10
e 5 14
e 5 15
e 5 16
e 5 19
e 5 24
e 5 25
e 5 27
e 5 32
e 5 33
e 6 8
e 6 10
e 6 11
e 6 12
e 6 13
e 6 18
e 6 22
e 6 23
e 6 26
e 6 29
e 6 31
e 6 32
e 6 33
e 6 34
e 7 9
e 7 11
e 7 12
e 7 19
e 7 22
e 7 24
e 7 26
e 7 28
e 7 29
e 7 33
e 7 34
e 8 9
e 8 10
e 8 15
e 8 19
e 8 20
e 8 22
e 8 25
e 8 28
e 8 29
e 9 10
e 9 11
e 9 13
e 9 20
e 9 21
e 9 27
e 9 34
e 10 13
e 10 14
e 10 17
e 10 20
e 10 30
e 11 13
e 11 15
e 11 16
e 11 17
e 11 20
e 11 21
e 11 22
e 11 32
e 11 34
e 12 13
e 12 14
e 12 16
e 12 23
e 12 26
e 12 32
e 12 34
e 13 18
e 13 21
e 13 22
e 13 28
e 13 29
e 13 33
e 14 17
e 14 18
e 14 21
e 14 31
e 15 17
e 15 18
e 15 23
e 15 25
e 15 27
e 15 28
e 15 30
e 15 32
e 15 33
e 15 34
e 16 19
e 16 20
e 16 22
e 16 23
e 16 29
e 17 18
e 17 25
e 17 27
e 17 31
e 17 32
e 17 33
e 18 25
e 18 26
e 18 28
e 19 22
e 19 24
e 19 34
e 20 22
e 20 23
e 20 25
e 20 28
e 20 30
e 21 24
e 21 25
e 21 26
e 22 23
e 22 24
e 22 28
e 23 24
e 23 26
e 23 33
e 24 27
e 24 31
e 24 32
e 25 31
e 26 29
e 26 31
e 27 30
e 27 32
e 27 33
e 28 30
e 29 31
e 30 32
e 31 33